
  22   10
  10   10   10   10   10   10   10   10   10   10

   0   0   0   0   0   0   0   0   0   0   0   4 2 4 5 6 
   2  10  10  10  10  10  10  10  10  10  10   1 3 
   2  10  10  10  10  10  10  10  10  10  10   2 14 7 
   7  10  10  10  10  10  10  10  10  10  10   2 14 8 
   6  10  10  10  10  10  10  10  10  10  10   1 7 
   8  10  10  10  10  10  10  10  10  10  10   2 14 9 
  10  10  10  10  10  10  10  10  10  10  10   1 8 
   5  10  10  10  10  10  10  10  10  10  10   1 9 
   1  10  10  10  10  10  10  10  10  10  10   2 21 10 
   6  10  10  10  10  10  10  10  10  10  10   3 17 12 11 
   6  10  10  10  10  10  10  10  10  10  10   3 20 15 13 
   2  10  10  10  10  10  10  10  10  10  10   3 20 19 16 
   6  10  10  10  10  10  10  10  10  10  10   2 19 18 
   3  10  10  10  10  10  10  10  10  10  10   2 19 18 
   5  10  10  10  10  10  10  10  10  10  10   1 16 
   3  10  10  10  10  10  10  10  10  10  10   1 18 
   8  10  10  10  10  10  10  10  10  10  10   1 20 
   5  10  10  10  10  10  10  10  10  10  10   1 22
   1  10  10  10  10  10  10  10  10  10  10   1 22
   6  10  10  10  10  10  10  10  10  10  10   1 22
   6  10  10  10  10  10  10  10  10  10  10   1 22
   0   0   0   0   0   0   0   0   0   0   0   0 
